\ENCODING=ISO-8859-1
\Problem name: IloCplex

Minimize
 obj1: 778 x(1,2) + 94 x(1,3) + 288 x(1,4) + 948 x(1,8) + 740 x(2,4)
       + 902 x(2,9) + 270 x(3,6) + 578 x(3,7) + 772 x(4,5) + 751 x(4,7)
       + 395 x(4,9) + 893 x(5,9) + 640 x(5,10) + 46 x(6,7) + 152 x(6,8)
       + 714 x(6,9) + 847 x(6,10) + 765 x(7,8) + 408 x(7,9) + 67 x(7,10)
       + 931 x(8,9) + 716 x(9,10) + 778 x(2,1) + 94 x(3,1) + 288 x(4,1)
       + 948 x(8,1) + 740 x(4,2) + 902 x(9,2) + 270 x(6,3) + 578 x(7,3)
       + 772 x(5,4) + 751 x(7,4) + 395 x(9,4) + 893 x(9,5) + 640 x(10,5)
       + 46 x(7,6) + 152 x(8,6) + 714 x(9,6) + 847 x(10,6) + 765 x(8,7)
       + 408 x(9,7) + 67 x(10,7) + 931 x(9,8) + 716 x(10,9)
Subject To
 c1:   x(1,2) + x(1,3) + x(1,4) + x(1,8) + x(2,4) + x(2,9) + x(3,6) + x(3,7)
       + x(4,5) + x(4,7) + x(4,9) + x(5,9) + x(5,10) + x(6,7) + x(6,8) + x(6,9)
       + x(6,10) + x(7,8) + x(7,9) + x(7,10) + x(8,9) + x(9,10) + x(2,1)
       + x(3,1) + x(4,1) + x(8,1) + x(4,2) + x(9,2) + x(6,3) + x(7,3) + x(5,4)
       + x(7,4) + x(9,4) + x(9,5) + x(10,5) + x(7,6) + x(8,6) + x(9,6)
       + x(10,6) + x(8,7) + x(9,7) + x(10,7) + x(9,8) + x(10,9)  = 4
 c2:   x(0,1) + x(0,2) + x(0,3) + x(0,4) + x(0,5) + x(0,6) + x(0,7) + x(0,8)
       + x(0,9) + x(0,10)  = 1
 c3:   x(1,0) + x(2,0) + x(3,0) + x(4,0) + x(5,0) + x(6,0) + x(7,0) + x(8,0)
       + x(9,0) + x(10,0)  = 0
 c4:   - x(1,2) - x(1,3) - x(1,4) - x(1,8) - x(1,0) + 4 z(1) >= 0
 c5:   - x(2,4) - x(2,9) - x(2,1) - x(2,0) + 4 z(2) >= 0
 c6:   - x(3,6) - x(3,7) - x(3,1) - x(3,0) + 4 z(3) >= 0
 c7:   - x(4,5) - x(4,7) - x(4,9) - x(4,1) - x(4,2) - x(4,0) + 4 z(4) >= 0
 c8:   - x(5,9) - x(5,10) - x(5,4) - x(5,0) + 4 z(5) >= 0
 c9:   - x(6,7) - x(6,8) - x(6,9) - x(6,10) - x(6,3) - x(6,0) + 4 z(6) >= 0
 c10:  - x(7,8) - x(7,9) - x(7,10) - x(7,3) - x(7,4) - x(7,6) - x(7,0) + 4 z(7)
       >= 0
 c11:  - x(8,9) - x(8,1) - x(8,6) - x(8,7) - x(8,0) + 4 z(8) >= 0
 c12:  - x(9,10) - x(9,2) - x(9,4) - x(9,5) - x(9,6) - x(9,7) - x(9,8) - x(9,0)
       + 4 z(9) >= 0
 c13:  - x(10,5) - x(10,6) - x(10,7) - x(10,9) - x(10,0) + 4 z(10) >= 0
 c14:  - x(1,2) - x(1,3) - x(1,4) - x(1,8) - x(2,1) - x(3,1) - x(4,1) - x(8,1)
       - x(0,1) - x(1,0) + z(1) <= 0
 c15:  - x(1,2) - x(2,4) - x(2,9) - x(2,1) - x(4,2) - x(9,2) - x(0,2) - x(2,0)
       + z(2) <= 0
 c16:  - x(1,3) - x(3,6) - x(3,7) - x(3,1) - x(6,3) - x(7,3) - x(0,3) - x(3,0)
       + z(3) <= 0
 c17:  - x(1,4) - x(2,4) - x(4,5) - x(4,7) - x(4,9) - x(4,1) - x(4,2) - x(5,4)
       - x(7,4) - x(9,4) - x(0,4) - x(4,0) + z(4) <= 0
 c18:  - x(4,5) - x(5,9) - x(5,10) - x(5,4) - x(9,5) - x(10,5) - x(0,5)
       - x(5,0) + z(5) <= 0
 c19:  - x(3,6) - x(6,7) - x(6,8) - x(6,9) - x(6,10) - x(6,3) - x(7,6) - x(8,6)
       - x(9,6) - x(10,6) - x(0,6) - x(6,0) + z(6) <= 0
 c20:  - x(3,7) - x(4,7) - x(6,7) - x(7,8) - x(7,9) - x(7,10) - x(7,3) - x(7,4)
       - x(7,6) - x(8,7) - x(9,7) - x(10,7) - x(0,7) - x(7,0) + z(7) <= 0
 c21:  - x(1,8) - x(6,8) - x(7,8) - x(8,9) - x(8,1) - x(8,6) - x(8,7) - x(9,8)
       - x(0,8) - x(8,0) + z(8) <= 0
 c22:  - x(2,9) - x(4,9) - x(5,9) - x(6,9) - x(7,9) - x(8,9) - x(9,10) - x(9,2)
       - x(9,4) - x(9,5) - x(9,6) - x(9,7) - x(9,8) - x(10,9) - x(0,9) - x(9,0)
       + z(9) <= 0
 c23:  - x(5,10) - x(6,10) - x(7,10) - x(9,10) - x(10,5) - x(10,6) - x(10,7)
       - x(10,9) - x(0,10) - x(10,0) + z(10) <= 0
 c24:  x(2,1) + x(3,1) + x(4,1) + x(8,1) + x(0,1) - z(1)  = 0
 c25:  x(1,2) + x(4,2) + x(9,2) + x(0,2) - z(2)  = 0
 c26:  x(1,3) + x(6,3) + x(7,3) + x(0,3) - z(3)  = 0
 c27:  x(1,4) + x(2,4) + x(5,4) + x(7,4) + x(9,4) + x(0,4) - z(4)  = 0
 c28:  x(4,5) + x(9,5) + x(10,5) + x(0,5) - z(5)  = 0
 c29:  x(3,6) + x(7,6) + x(8,6) + x(9,6) + x(10,6) + x(0,6) - z(6)  = 0
 c30:  x(3,7) + x(4,7) + x(6,7) + x(8,7) + x(9,7) + x(10,7) + x(0,7) - z(7)
        = 0
 c31:  x(1,8) + x(6,8) + x(7,8) + x(9,8) + x(0,8) - z(8)  = 0
 c32:  x(2,9) + x(4,9) + x(5,9) + x(6,9) + x(7,9) + x(8,9) + x(10,9) + x(0,9)
       - z(9)  = 0
 c33:  x(5,10) + x(6,10) + x(7,10) + x(9,10) + x(0,10) - z(10)  = 0
 c34:  z(1) + z(2) + z(3) + z(4) + z(5) + z(6) + z(7) + z(8) + z(9) + z(10)
        = 5
 c35:  d(0)  = 0
 c36:  6 x(0,1) + d(0) - d(1) <= 5
 c37:  6 x(0,2) + d(0) - d(2) <= 5
 c38:  6 x(0,3) + d(0) - d(3) <= 5
 c39:  6 x(0,4) + d(0) - d(4) <= 5
 c40:  6 x(0,5) + d(0) - d(5) <= 5
 c41:  6 x(0,6) + d(0) - d(6) <= 5
 c42:  6 x(0,7) + d(0) - d(7) <= 5
 c43:  6 x(0,8) + d(0) - d(8) <= 5
 c44:  6 x(0,9) + d(0) - d(9) <= 5
 c45:  6 x(0,10) + d(0) - d(10) <= 5
 c46:  6 x(1,2) + d(1) - d(2) <= 5
 c47:  6 x(1,3) + d(1) - d(3) <= 5
 c48:  6 x(1,4) + d(1) - d(4) <= 5
 c49:  6 x(1,8) + d(1) - d(8) <= 5
 c50:  6 x(2,4) + d(2) - d(4) <= 5
 c51:  6 x(2,9) + d(2) - d(9) <= 5
 c52:  6 x(3,6) + d(3) - d(6) <= 5
 c53:  6 x(3,7) + d(3) - d(7) <= 5
 c54:  6 x(4,5) + d(4) - d(5) <= 5
 c55:  6 x(4,7) + d(4) - d(7) <= 5
 c56:  6 x(4,9) + d(4) - d(9) <= 5
 c57:  6 x(5,9) + d(5) - d(9) <= 5
 c58:  6 x(5,10) + d(5) - d(10) <= 5
 c59:  6 x(6,7) + d(6) - d(7) <= 5
 c60:  6 x(6,8) + d(6) - d(8) <= 5
 c61:  6 x(6,9) + d(6) - d(9) <= 5
 c62:  6 x(6,10) + d(6) - d(10) <= 5
 c63:  6 x(7,8) + d(7) - d(8) <= 5
 c64:  6 x(7,9) + d(7) - d(9) <= 5
 c65:  6 x(7,10) + d(7) - d(10) <= 5
 c66:  6 x(8,9) + d(8) - d(9) <= 5
 c67:  6 x(9,10) + d(9) - d(10) <= 5
 c68:  6 x(1,0) - d(0) + d(1) <= 5
 c69:  6 x(2,0) - d(0) + d(2) <= 5
 c70:  6 x(3,0) - d(0) + d(3) <= 5
 c71:  6 x(4,0) - d(0) + d(4) <= 5
 c72:  6 x(5,0) - d(0) + d(5) <= 5
 c73:  6 x(6,0) - d(0) + d(6) <= 5
 c74:  6 x(7,0) - d(0) + d(7) <= 5
 c75:  6 x(8,0) - d(0) + d(8) <= 5
 c76:  6 x(9,0) - d(0) + d(9) <= 5
 c77:  6 x(10,0) - d(0) + d(10) <= 5
 c78:  6 x(2,1) - d(1) + d(2) <= 5
 c79:  6 x(3,1) - d(1) + d(3) <= 5
 c80:  6 x(4,1) - d(1) + d(4) <= 5
 c81:  6 x(8,1) - d(1) + d(8) <= 5
 c82:  6 x(4,2) - d(2) + d(4) <= 5
 c83:  6 x(9,2) - d(2) + d(9) <= 5
 c84:  6 x(6,3) - d(3) + d(6) <= 5
 c85:  6 x(7,3) - d(3) + d(7) <= 5
 c86:  6 x(5,4) - d(4) + d(5) <= 5
 c87:  6 x(7,4) - d(4) + d(7) <= 5
 c88:  6 x(9,4) - d(4) + d(9) <= 5
 c89:  6 x(9,5) - d(5) + d(9) <= 5
 c90:  6 x(10,5) - d(5) + d(10) <= 5
 c91:  6 x(7,6) - d(6) + d(7) <= 5
 c92:  6 x(8,6) - d(6) + d(8) <= 5
 c93:  6 x(9,6) - d(6) + d(9) <= 5
 c94:  6 x(10,6) - d(6) + d(10) <= 5
 c95:  6 x(8,7) - d(7) + d(8) <= 5
 c96:  6 x(9,7) - d(7) + d(9) <= 5
 c97:  6 x(10,7) - d(7) + d(10) <= 5
 c98:  6 x(9,8) - d(8) + d(9) <= 5
 c99:  6 x(10,9) - d(9) + d(10) <= 5
 c100: d(0) - 11 z(0) <= 0
 c101: - 11 z(1) + d(1) <= 0
 c102: - 11 z(2) + d(2) <= 0
 c103: - 11 z(3) + d(3) <= 0
 c104: - 11 z(4) + d(4) <= 0
 c105: - 11 z(5) + d(5) <= 0
 c106: - 11 z(6) + d(6) <= 0
 c107: - 11 z(7) + d(7) <= 0
 c108: - 11 z(8) + d(8) <= 0
 c109: - 11 z(9) + d(9) <= 0
 c110: - 11 z(10) + d(10) <= 0
Bounds
 0 <= x(1,2) <= 1
 0 <= x(1,3) <= 1
 0 <= x(1,4) <= 1
 0 <= x(1,8) <= 1
 0 <= x(2,4) <= 1
 0 <= x(2,9) <= 1
 0 <= x(3,6) <= 1
 0 <= x(3,7) <= 1
 0 <= x(4,5) <= 1
 0 <= x(4,7) <= 1
 0 <= x(4,9) <= 1
 0 <= x(5,9) <= 1
 0 <= x(5,10) <= 1
 0 <= x(6,7) <= 1
 0 <= x(6,8) <= 1
 0 <= x(6,9) <= 1
 0 <= x(6,10) <= 1
 0 <= x(7,8) <= 1
 0 <= x(7,9) <= 1
 0 <= x(7,10) <= 1
 0 <= x(8,9) <= 1
 0 <= x(9,10) <= 1
 0 <= x(2,1) <= 1
 0 <= x(3,1) <= 1
 0 <= x(4,1) <= 1
 0 <= x(8,1) <= 1
 0 <= x(4,2) <= 1
 0 <= x(9,2) <= 1
 0 <= x(6,3) <= 1
 0 <= x(7,3) <= 1
 0 <= x(5,4) <= 1
 0 <= x(7,4) <= 1
 0 <= x(9,4) <= 1
 0 <= x(9,5) <= 1
 0 <= x(10,5) <= 1
 0 <= x(7,6) <= 1
 0 <= x(8,6) <= 1
 0 <= x(9,6) <= 1
 0 <= x(10,6) <= 1
 0 <= x(8,7) <= 1
 0 <= x(9,7) <= 1
 0 <= x(10,7) <= 1
 0 <= x(9,8) <= 1
 0 <= x(10,9) <= 1
 0 <= x(0,1) <= 1
 0 <= x(0,2) <= 1
 0 <= x(0,3) <= 1
 0 <= x(0,4) <= 1
 0 <= x(0,5) <= 1
 0 <= x(0,6) <= 1
 0 <= x(0,7) <= 1
 0 <= x(0,8) <= 1
 0 <= x(0,9) <= 1
 0 <= x(0,10) <= 1
 0 <= x(1,0) <= 1
 0 <= x(2,0) <= 1
 0 <= x(3,0) <= 1
 0 <= x(4,0) <= 1
 0 <= x(5,0) <= 1
 0 <= x(6,0) <= 1
 0 <= x(7,0) <= 1
 0 <= x(8,0) <= 1
 0 <= x(9,0) <= 1
 0 <= x(10,0) <= 1
 0 <= z(1) <= 1
 0 <= z(2) <= 1
 0 <= z(3) <= 1
 0 <= z(4) <= 1
 0 <= z(5) <= 1
 0 <= z(6) <= 1
 0 <= z(7) <= 1
 0 <= z(8) <= 1
 0 <= z(9) <= 1
 0 <= z(10) <= 1
 0 <= d(0) <= 5
 0 <= d(1) <= 5
 0 <= d(2) <= 5
 0 <= d(3) <= 5
 0 <= d(4) <= 5
 0 <= d(5) <= 5
 0 <= d(6) <= 5
 0 <= d(7) <= 5
 0 <= d(8) <= 5
 0 <= d(9) <= 5
 0 <= d(10) <= 5
 0 <= z(0) <= 1
Binaries
 x(1,2)  x(1,3)  x(1,4)  x(1,8)  x(2,4)  x(2,9)  x(3,6)  x(3,7)  x(4,5) 
 x(4,7)  x(4,9)  x(5,9)  x(5,10)  x(6,7)  x(6,8)  x(6,9)  x(6,10)  x(7,8) 
 x(7,9)  x(7,10)  x(8,9)  x(9,10)  x(2,1)  x(3,1)  x(4,1)  x(8,1)  x(4,2) 
 x(9,2)  x(6,3)  x(7,3)  x(5,4)  x(7,4)  x(9,4)  x(9,5)  x(10,5)  x(7,6) 
 x(8,6)  x(9,6)  x(10,6)  x(8,7)  x(9,7)  x(10,7)  x(9,8)  x(10,9)  x(0,1) 
 x(0,2)  x(0,3)  x(0,4)  x(0,5)  x(0,6)  x(0,7)  x(0,8)  x(0,9)  x(0,10) 
 x(1,0)  x(2,0)  x(3,0)  x(4,0)  x(5,0)  x(6,0)  x(7,0)  x(8,0)  x(9,0) 
 x(10,0)  z(1)  z(2)  z(3)  z(4)  z(5)  z(6)  z(7)  z(8)  z(9)  z(10)  z(0) 
Generals
 d(0)  d(1)  d(2)  d(3)  d(4)  d(5)  d(6)  d(7)  d(8)  d(9)  d(10) 
End
